NAME: instance_460
TYPE: TSP
DIMENSION: 20
EDGE_WEIGHT_TYPE: EUC_2D
NODE_COORD_SECTION
0 89.47 97.08
1 19.97 10.16
2 57.87 32.93
3 63.36 59.45
4 99.54 83.40
5 88.82 92.29
6 9.53 88.08
7 90.24 4.29
8 48.25 42.21
9 49.01 11.28
10 58.38 59.39
11 2.58 78.17
12 7.02 42.97
13 58.80 74.57
14 10.56 55.53
15 46.32 27.37
16 98.19 15.13
17 42.56 15.92
18 34.18 59.88
19 78.28 34.35
EOF
